============================[ Problem Statistics ]=============================|                                                                             ||  Number of variables:          4242                                         ||  Number of clauses:           10174                                         ||  Parse time:                   0.57 s                                       ||                                                                             |============================[ Search Statistics ]==============================| Conflicts |          ORIGINAL         |          LEARNT          | Progress ||           |    Vars  Clauses Literals |    Limit  Clauses Lit/Cl |          |===============================================================================|       100 |    1591     6379   896390 |     2338      100     53 | 62.501 % ||       250 |    1591     6379   896390 |     2572      250     75 | 62.495 % |===============================================================================restarts              : 3conflicts             : 311            (362 /sec)decisions             : 575            (0.00 % random) (669 /sec)propagations          : 11874          (13807 /sec)conflict literals     : 24714          (94.71 % deleted)CPU time              : 0.86 sSATISFIABLE